\ LP format - for model browsing. Use MPS format to capture full model detail.
Maximize
  0 a__9 + 0 a__10 + b_g
Subject To
 R0: b_0 >= 0
 R1: v__0 + b_0 = 5
 R2: v__0 = 5
 R3: b_1 >= 0
 R4: vl__0 + b_1 = 10
 R5: vl__0 = 10
 R6: b_2 >= 0
 R7: d__0 + b_2 = 15
 R8: d__0 = 15
 R9: b_3 >= 0
 R10: a__0 + b_3 = 0
 R11: a__0 = 0
 R12: b_a >= 0
 R13: al__0 + b_a_5[0,0] = -1
 R14: al__0 = -1
 R15: al__1 + b_a_5[0,1] = -1
 R16: al__1 = -1
 R17: al__2 + b_a_5[0,2] = -1
 R18: al__2 = -1
 R19: al__3 + b_a_5[0,3] = -1
 R20: al__3 = -1
 R21: al__4 + b_a_5[0,4] = -1
 R22: al__4 = -1
 R23: al__5 + b_a_5[0,5] = -1
 R24: al__5 = -1
 R25: al__6 + b_a_5[0,6] = -1
 R26: al__6 = -1
 R27: al__7 + b_a_5[0,7] = -1
 R28: al__7 = -1
 R29: al__8 + b_a_5[0,8] = -1
 R30: al__8 = -1
 R31: al__9 + b_a_5[0,9] = -1
 R32: al__9 = -1
 R33: al__10 + b_a_5[0,10] = -1
 R34: al__10 = -1
 R35: - d__0 + c + b_g_7[0,0] = 0
 R36: v__0 - vl__0 - d__0 - al__0 + c + b_g_7[0,1] = 0
 R37: 2 v__0 - 2 vl__0 - d__0 + a__0 - 2 al__0 - al__1 + c + b_g_7[0,2]
   = 0
 R38: 3 v__0 - 3 vl__0 - d__0 + 2 a__0 + a__1 - 3 al__0 - 2 al__1 - al__2
   + c + b_g_7[0,3] = 0
 R39: 4 v__0 - 4 vl__0 - d__0 + 3 a__0 + 2 a__1 + a__2 - 4 al__0 - 3 al__1
   - 2 al__2 - al__3 + c + b_g_7[0,4] = 0
 R40: 5 v__0 - 5 vl__0 - d__0 + 4 a__0 + 3 a__1 + 2 a__2 + a__3 - 5 al__0
   - 4 al__1 - 3 al__2 - 2 al__3 - al__4 + c + b_g_7[0,5] = 0
 R41: 6 v__0 - 6 vl__0 - d__0 + 5 a__0 + 4 a__1 + 3 a__2 + 2 a__3 + a__4
   - 6 al__0 - 5 al__1 - 4 al__2 - 3 al__3 - 2 al__4 - al__5 + c
   + b_g_7[0,6] = 0
 R42: 7 v__0 - 7 vl__0 - d__0 + 6 a__0 + 5 a__1 + 4 a__2 + 3 a__3 + 2 a__4
   + a__5 - 7 al__0 - 6 al__1 - 5 al__2 - 4 al__3 - 3 al__4 - 2 al__5
   - al__6 + c + b_g_7[0,7] = 0
 R43: 8 v__0 - 8 vl__0 - d__0 + 7 a__0 + 6 a__1 + 5 a__2 + 4 a__3 + 3 a__4
   + 2 a__5 + a__6 - 8 al__0 - 7 al__1 - 6 al__2 - 5 al__3 - 4 al__4
   - 3 al__5 - 2 al__6 - al__7 + c + b_g_7[0,8] = 0
 R44: 9 v__0 - 9 vl__0 - d__0 + 8 a__0 + 7 a__1 + 6 a__2 + 5 a__3 + 4 a__4
   + 3 a__5 + 2 a__6 + a__7 - 9 al__0 - 8 al__1 - 7 al__2 - 6 al__3
   - 5 al__4 - 4 al__5 - 3 al__6 - 2 al__7 - al__8 + c + b_g_7[0,9] = 0
 R45: 10 v__0 - 10 vl__0 - d__0 + 9 a__0 + 8 a__1 + 7 a__2 + 6 a__3
   + 5 a__4 + 4 a__5 + 3 a__6 + 2 a__7 + a__8 - 10 al__0 - 9 al__1
   - 8 al__2 - 7 al__3 - 6 al__4 - 5 al__5 - 4 al__6 - 3 al__7 - 2 al__8
   - al__9 + c + b_g_7[0,10] = 0
Bounds
 v__0 <= 34
 vl__0 <= 34
 -100 <= d__0 <= 500
 -2.95 <= a__0 <= 1.99
 -2.95 <= a__1 <= 1.99
 -2.95 <= a__2 <= 1.99
 -2.95 <= a__3 <= 1.99
 -2.95 <= a__4 <= 1.99
 -2.95 <= a__5 <= 1.99
 -2.95 <= a__6 <= 1.99
 -2.95 <= a__7 <= 1.99
 -2.95 <= a__8 <= 1.99
 -2.95 <= a__9 <= 1.99
 -2.95 <= a__10 <= 1.99
 -3.5 <= al__0 <= 3.5
 -3.5 <= al__1 <= 3.5
 -3.5 <= al__2 <= 3.5
 -3.5 <= al__3 <= 3.5
 -3.5 <= al__4 <= 3.5
 -3.5 <= al__5 <= 3.5
 -3.5 <= al__6 <= 3.5
 -3.5 <= al__7 <= 3.5
 -3.5 <= al__8 <= 3.5
 -3.5 <= al__9 <= 3.5
 -3.5 <= al__10 <= 3.5
 3.3125 <= c <= 3.375
 -10000 <= b_0 <= 10000
 -10000 <= b_1 <= 10000
 -10000 <= b_2 <= 10000
 -10000 <= b_3 <= 10000
 -10000 <= b_a <= 10000
 -10000 <= b_a_5[0,0] <= 10000
 -10000 <= b_a_5[0,1] <= 10000
 -10000 <= b_a_5[0,2] <= 10000
 -10000 <= b_a_5[0,3] <= 10000
 -10000 <= b_a_5[0,4] <= 10000
 -10000 <= b_a_5[0,5] <= 10000
 -10000 <= b_a_5[0,6] <= 10000
 -10000 <= b_a_5[0,7] <= 10000
 -10000 <= b_a_5[0,8] <= 10000
 -10000 <= b_a_5[0,9] <= 10000
 -10000 <= b_a_5[0,10] <= 10000
 -10000 <= b_g <= 10000
 -10000 <= b_g_7[0,0] <= 10000
 -10000 <= b_g_7[0,1] <= 10000
 -10000 <= b_g_7[0,2] <= 10000
 -10000 <= b_g_7[0,3] <= 10000
 -10000 <= b_g_7[0,4] <= 10000
 -10000 <= b_g_7[0,5] <= 10000
 -10000 <= b_g_7[0,6] <= 10000
 -10000 <= b_g_7[0,7] <= 10000
 -10000 <= b_g_7[0,8] <= 10000
 -10000 <= b_g_7[0,9] <= 10000
 -10000 <= b_g_7[0,10] <= 10000
General Constraints
 GC0: b_a = MIN ( b_a_5[0,0] , b_a_5[0,1] , b_a_5[0,2] , b_a_5[0,3] ,
   b_a_5[0,4] , b_a_5[0,5] , b_a_5[0,6] , b_a_5[0,7] , b_a_5[0,8] ,
   b_a_5[0,9] , b_a_5[0,10] )
 GC1: b_g = MIN ( b_g_7[0,0] , b_g_7[0,1] , b_g_7[0,2] , b_g_7[0,3] ,
   b_g_7[0,4] , b_g_7[0,5] , b_g_7[0,6] , b_g_7[0,7] , b_g_7[0,8] ,
   b_g_7[0,9] , b_g_7[0,10] )
End
